<?xml version="1.0" encoding="UTF-8"?><osil xmlns="os.optimizationservices.org" xmlns:xsi="http://www.w3.org/2001/XMLSchema-instance" xsi:schemaLocation="os.optimizationservices.org http://www.optimizationservices.org/schemas/2.0/OSiL.xsd"><instanceHeader><name>ex1263a</name></instanceHeader><instanceData><variables numberOfVariables="24"><var name="i1" type="I" ub="5"/><var name="i2" type="I" ub="5"/><var name="i3" type="I" ub="5"/><var name="i4" type="I" ub="5"/><var name="i5" type="I" ub="5"/><var name="i6" type="I" ub="5"/><var name="i7" type="I" ub="5"/><var name="i8" type="I" ub="5"/><var name="i9" type="I" ub="5"/><var name="i10" type="I" ub="5"/><var name="i11" type="I" ub="5"/><var name="i12" type="I" ub="5"/><var name="i13" type="I" ub="5"/><var name="i14" type="I" ub="5"/><var name="i15" type="I" ub="5"/><var name="i16" type="I" ub="5"/><var name="b17" type="B" ub="1"/><var name="b18" type="B" ub="1"/><var name="b19" type="B" ub="1"/><var name="b20" type="B" ub="1"/><var name="i21" type="I" ub="30"/><var name="i22" type="I" ub="30"/><var name="i23" type="I" ub="30"/><var name="i24" type="I" ub="30"/></variables><objectives><obj maxOrMin="min" name="defObj_objvar" numberOfObjCoef="8"><coef idx="16">.1</coef><coef idx="17">.2</coef><coef idx="18">.3</coef><coef idx="19">.4</coef><coef idx="20">1</coef><coef idx="21">1</coef><coef idx="22">1</coef><coef idx="23">1</coef></obj></objectives><constraints numberOfConstraints="35"><con name="e2" lb="15"/><con name="e3" lb="28"/><con name="e4" lb="21"/><con name="e5" lb="30"/><con name="e6" ub="0"/><con name="e7" ub="0"/><con name="e8" ub="0"/><con name="e9" ub="0"/><con name="e10" ub="0"/><con name="e11" ub="0"/><con name="e12" ub="0"/><con name="e13" ub="0"/><con name="e14" ub="0"/><con name="e15" ub="0"/><con name="e16" ub="0"/><con name="e17" ub="0"/><con name="e18" ub="0"/><con name="e19" ub="0"/><con name="e20" ub="0"/><con name="e21" ub="0"/><con name="e22" ub="0"/><con name="e23" ub="0"/><con name="e24" ub="0"/><con name="e25" ub="0"/><con name="e26" ub="0"/><con name="e27" ub="0"/><con name="e28" ub="0"/><con name="e29" ub="0"/><con name="e30" lb="19"/><con name="e31" ub="0"/><con name="e32" ub="0"/><con name="e33" ub="0"/><con name="e34" ub="0"/><con name="e35" ub="0"/><con name="e36" ub="0"/></constraints><linearConstraintCoefficients numberOfValues="112"><start><el mult="5">0</el><el mult="16" incr="5">5</el><el mult="8" incr="2">82</el><el mult="7" incr="2">100</el></start><colIdx><el mult="5" incr="4">0</el><el mult="5" incr="4">1</el><el mult="5" incr="4">2</el><el mult="5" incr="4">3</el><el mult="5" incr="4">0</el><el mult="5" incr="4">1</el><el mult="5" incr="4">2</el><el mult="5" incr="4">3</el><el mult="5" incr="4">0</el><el mult="5" incr="4">1</el><el mult="5" incr="4">2</el><el mult="5" incr="4">3</el><el mult="5" incr="4">0</el><el mult="5" incr="4">1</el><el mult="5" incr="4">2</el><el mult="5" incr="4">3</el><el>16</el><el>20</el><el>17</el><el>21</el><el>18</el><el>22</el><el>19</el><el>23</el><el>16</el><el>20</el><el>17</el><el>21</el><el>18</el><el>22</el><el>19</el><el>23</el><el mult="4" incr="1">20</el><el>16</el><el mult="2">17</el><el mult="2">18</el><el mult="3" incr="1">19</el><el>21</el><el mult="2">22</el><el>23</el></colIdx><value><el>-2.9e2</el><el>-315</el><el>-3.5e2</el><el>-455</el><el>1.75e3</el><el>-2.9e2</el><el>-315</el><el>-3.5e2</el><el>-455</el><el>1.75e3</el><el>-2.9e2</el><el>-315</el><el>-3.5e2</el><el>-455</el><el>1.75e3</el><el>-2.9e2</el><el>-315</el><el>-3.5e2</el><el>-455</el><el>1.75e3</el><el>2.9e2</el><el>315</el><el>3.5e2</el><el>455</el><el>-1.85e3</el><el>2.9e2</el><el>315</el><el>3.5e2</el><el>455</el><el>-1.85e3</el><el>2.9e2</el><el>315</el><el>3.5e2</el><el>455</el><el>-1.85e3</el><el>2.9e2</el><el>315</el><el>3.5e2</el><el>455</el><el>-1.85e3</el><el mult="4">-1</el><el>1</el><el mult="4">-1</el><el>1</el><el mult="4">-1</el><el>1</el><el mult="4">-1</el><el mult="5">1</el><el>-5</el><el mult="4">1</el><el>-5</el><el mult="4">1</el><el>-5</el><el mult="4">1</el><el>-5</el><el>1</el><el>-1</el><el>1</el><el>-1</el><el>1</el><el>-1</el><el>1</el><el>-1</el><el>-30</el><el>1</el><el>-30</el><el>1</el><el>-30</el><el>1</el><el>-30</el><el mult="5">1</el><el>-1</el><el>1</el><el>-1</el><el>1</el><el>-1</el><el>1</el><el>-1</el><el>1</el><el>-1</el><el>1</el><el>-1</el><el>1</el></value></linearConstraintCoefficients><quadraticCoefficients numberOfQuadraticTerms="16"><qTerm idx="0" idxOne="0" idxTwo="20" coef="1"/><qTerm idx="0" idxOne="1" idxTwo="21" coef="1"/><qTerm idx="0" idxOne="2" idxTwo="22" coef="1"/><qTerm idx="0" idxOne="3" idxTwo="23" coef="1"/><qTerm idx="1" idxOne="4" idxTwo="20" coef="1"/><qTerm idx="1" idxOne="5" idxTwo="21" coef="1"/><qTerm idx="1" idxOne="6" idxTwo="22" coef="1"/><qTerm idx="1" idxOne="7" idxTwo="23" coef="1"/><qTerm idx="2" idxOne="8" idxTwo="20" coef="1"/><qTerm idx="2" idxOne="9" idxTwo="21" coef="1"/><qTerm idx="2" idxOne="10" idxTwo="22" coef="1"/><qTerm idx="2" idxOne="11" idxTwo="23" coef="1"/><qTerm idx="3" idxOne="12" idxTwo="20" coef="1"/><qTerm idx="3" idxOne="13" idxTwo="21" coef="1"/><qTerm idx="3" idxOne="14" idxTwo="22" coef="1"/><qTerm idx="3" idxOne="15" idxTwo="23" coef="1"/></quadraticCoefficients></instanceData></osil>